sat
(:max-memory         18.43
 :memory             18.33
 :nlsat-arith-var    3
 :nlsat-atoms        10
 :nlsat-bool-var     1
 :nlsat-clauses      8
 :nlsat-conflicts    2
 :nlsat-propagations 18
 :nlsat-stages       7
 :num-allocs         52168
 :rlimit-count       2524
 :time               0.00
 :total-time         0.01)
